n = 100;
C = 551;
w = [736,706,540,312,513,502,301,984,201,732,514,795,560,142,49,497,415,512,227,621,685,928,306,431,464,207,879,588,534,656,960,147,661,382,640,985,376,419,23,952,499,934,83,299,753,588,79,701,227,970,403,939,68,202,732,191,835,933,269,526,505,672,406,948,748,897,237,959,499,363,987,49,698,353,184,818,152,888,344,405,991,1000,519,553,60,252,636,700,496,648,587,923,758,802,325,636,798,508,683,832];
p = [736,706,540,312,513,502,301,984,201,732,514,795,560,142,49,497,415,512,227,621,685,928,306,431,464,207,879,588,534,656,960,147,661,382,640,985,376,419,23,952,499,934,83,299,753,588,79,701,227,970,403,939,68,202,732,191,835,933,269,526,505,672,406,948,748,897,237,959,499,363,987,49,698,353,184,818,152,888,344,405,991,1000,519,553,60,252,636,700,496,648,587,923,758,802,325,636,798,508,683,832];
